
******************************************************************************
This program contains Ipopt, a library for large-scale nonlinear optimization.
 Ipopt is released as open source code under the Eclipse Public License (EPL).
         For more information visit http://projects.coin-or.org/Ipopt

This version of Ipopt was compiled from source code available at
    https://github.com/IDAES/Ipopt as part of the Institute for the Design of
    Advanced Energy Systems Process Systems Engineering Framework (IDAES PSE
    Framework) Copyright (c) 2018-2019. See https://github.com/IDAES/idaes-pse.

This version of Ipopt was compiled using HSL, a collection of Fortran codes
    for large-scale scientific computation.  All technical papers, sales and
    publicity material resulting from use of the HSL codes within IPOPT must
    contain the following acknowledgement:
        HSL, a collection of Fortran codes for large-scale scientific
        computation. See http://www.hsl.rl.ac.uk.
******************************************************************************

This is Ipopt version 3.13.2, running with linear solver ma27.

Number of nonzeros in equality constraint Jacobian...:      808
Number of nonzeros in inequality constraint Jacobian.:        0
Number of nonzeros in Lagrangian Hessian.............:      702

Total number of variables............................:      351
                     variables with only lower bounds:      108
                variables with lower and upper bounds:      189
                     variables with only upper bounds:        0
Total number of equality constraints.................:      350
Total number of inequality constraints...............:        0
        inequality constraints with only lower bounds:        0
   inequality constraints with lower and upper bounds:        0
        inequality constraints with only upper bounds:        0

iter    objective    inf_pr   inf_du lg(mu)  ||d||  lg(rg) alpha_du alpha_pr  ls
   0  0.0000000e+00 1.67e+00 1.55e-15  -1.0 0.00e+00    -  0.00e+00 0.00e+00   0
   1  2.7950262e-01 1.19e+00 2.70e+04  -1.0 6.45e+04    -  4.18e-02 5.72e-01h  1
   2  8.8387706e-01 7.34e-01 8.37e+03  -1.0 2.91e+04    -  8.16e-02 9.90e-01h  1
   3  8.9242670e-01 4.39e-01 4.74e+03  -1.0 7.59e+02    -  2.87e-01 4.95e-01h  2
   4  9.0224381e-01 3.19e-02 1.26e+03  -1.0 4.40e+02    -  9.89e-01 9.90e-01h  1
   5  9.0811252e-01 3.24e-03 1.25e+03  -1.0 1.97e+03    -  9.88e-01 9.90e-01h  1
   6  9.0956362e-01 3.23e-03 1.36e+07  -1.0 5.76e+04    -  3.02e-01 7.73e-03h  8
   7  9.0956302e-01 4.68e-05 1.36e+05  -1.0 8.17e-01  -4.0 9.90e-01 9.90e-01h  1
   8  9.0967325e-01 4.67e-05 4.60e+09  -1.0 8.60e+03    -  9.90e-01 3.87e-03h  9
   9  9.0982024e-01 4.66e-05 9.24e+09  -1.0 1.14e+04    -  1.00e+00 3.87e-03h  9
iter    objective    inf_pr   inf_du lg(mu)  ||d||  lg(rg) alpha_du alpha_pr  ls
  10  9.0995574e-01 4.65e-05 1.39e+10  -1.0 1.05e+04    -  1.00e+00 3.87e-03h  9
  11  9.1009522e-01 4.65e-05 1.85e+10  -1.0 1.08e+04    -  1.00e+00 3.87e-03h  9
  12  9.1023315e-01 4.64e-05 2.32e+10  -1.0 1.06e+04    -  1.00e+00 3.87e-03h  9
  13  9.1037167e-01 4.63e-05 2.78e+10  -1.0 1.06e+04    -  1.00e+00 3.87e-03h  9
  14  9.1050992e-01 4.63e-05 3.25e+10  -1.0 1.06e+04    -  1.00e+00 3.87e-03h  9
  15  9.1064824e-01 4.62e-05 3.71e+10  -1.0 1.06e+04    -  1.00e+00 3.87e-03h  9
  16  9.1078649e-01 4.61e-05 4.18e+10  -1.0 1.05e+04    -  1.00e+00 3.87e-03h  9
  17  9.1092472e-01 4.61e-05 4.64e+10  -1.0 1.05e+04    -  1.00e+00 3.87e-03h  9
  18  9.5978276e-01 4.52e-03 5.13e+08  -1.0 1.05e+04    -  1.00e+00 9.90e-01w  1
  19  9.6705016e-01 2.57e-04 4.85e+09  -1.0 1.22e+03    -  1.00e+00 9.90e-01w  1
In iteration 19, 27 Slacks too small, adjusting variable bounds
iter    objective    inf_pr   inf_du lg(mu)  ||d||  lg(rg) alpha_du alpha_pr  ls
  20  9.6699231e-01 2.60e-06 4.85e+11  -1.0 8.64e+00    -  1.00e+00 9.90e-01h  1
  21  9.6699124e-01 1.55e-12 1.28e-03  -1.0 1.63e-01    -  1.00e+00 1.00e+00h  1
  22  9.6547729e-01 1.81e-06 5.20e+11  -9.0 1.55e+04    -  9.75e-01 1.56e-02f  7
  23  9.6500640e-01 1.99e-06 5.31e+11  -9.0 1.94e+04    -  9.76e-01 3.91e-03f  9
  24  9.6449008e-01 2.20e-06 5.30e+11  -9.0 2.13e+04    -  9.99e-01 3.91e-03f  9
  25  9.6421924e-01 2.25e-06 5.29e+11  -9.0 2.24e+04    -  1.00e+00 1.95e-03f 10
  26  9.6407975e-01 2.27e-06 5.28e+11  -9.0 2.31e+04    -  1.00e+00 9.77e-04f 11
  27  8.8817597e-01 5.93e-02 1.10e+01  -9.0 2.36e+04    -  1.00e+00 1.00e+00f  1
  28  8.8788355e-01 1.58e-03 1.42e-01  -9.0 1.79e+03    -  1.00e+00 1.00e+00h  1
  29  8.8779841e-01 5.83e-05 5.15e-03  -9.0 7.79e+02    -  8.69e-01 1.00e+00h  1
iter    objective    inf_pr   inf_du lg(mu)  ||d||  lg(rg) alpha_du alpha_pr  ls
  30  8.8779803e-01 2.77e-07 3.53e-05  -9.0 3.05e+01    -  9.99e-01 1.00e+00h  1
  31  8.8779803e-01 8.13e-13 4.37e-11  -9.0 1.42e-02    -  1.00e+00 1.00e+00h  1

Number of Iterations....: 31

                                   (scaled)                 (unscaled)
Objective...............:   8.8779802670430019e-01    8.8779802670430019e-01
Dual infeasibility......:   4.3655745685100555e-11    4.3655745685100555e-11
Constraint violation....:   8.1329387668915842e-13    8.1329387668915842e-13
Complementarity.........:   9.0909157417665802e-10    9.0909157417665802e-10
Overall NLP error.......:   3.3519354944614328e-10    9.0909157417665802e-10


Number of objective function evaluations             = 215
Number of objective gradient evaluations             = 32
Number of equality constraint evaluations            = 215
Number of inequality constraint evaluations          = 0
Number of equality constraint Jacobian evaluations   = 32
Number of inequality constraint Jacobian evaluations = 0
Number of Lagrangian Hessian evaluations             = 31
Total CPU secs in IPOPT (w/o function evaluations)   =      0.070
Total CPU secs in NLP function evaluations           =      1.508

EXIT: Optimal Solution Found.
